c nIsolatedPIs 0
c maxPI 20
p cnf 592 1717
c gate 21 3 16 0
3 -21 0
16 -21 0
-3 -16 21 0
c gate 22 5 14 0
5 -22 0
14 -22 0
-5 -14 22 0
c gate 23 4 15 0
4 -23 0
15 -23 0
-4 -15 23 0
c gate 24 -22 -23 0
-22 -24 0
-23 -24 0
22 23 24 0
c gate 25 22 23 0
22 -25 0
23 -25 0
-22 -23 25 0
c gate 26 -24 -25 0
-24 -26 0
-25 -26 0
24 25 26 0
c gate 27 -21 -26 0
-21 -27 0
-26 -27 0
21 26 27 0
c gate 28 21 26 0
21 -28 0
26 -28 0
-21 -26 28 0
c gate 29 -27 -28 0
-27 -29 0
-28 -29 0
27 28 29 0
c gate 30 6 13 0
6 -30 0
13 -30 0
-6 -13 30 0
c gate 31 8 11 0
8 -31 0
11 -31 0
-8 -11 31 0
c gate 32 7 12 0
7 -32 0
12 -32 0
-7 -12 32 0
c gate 33 31 32 0
31 -33 0
32 -33 0
-31 -32 33 0
c gate 34 -31 -32 0
-31 -34 0
-32 -34 0
31 32 34 0
c gate 35 -33 -34 0
-33 -35 0
-34 -35 0
33 34 35 0
c gate 36 30 35 0
30 -36 0
35 -36 0
-30 -35 36 0
c gate 37 -30 -35 0
-30 -37 0
-35 -37 0
30 35 37 0
c gate 38 -36 -37 0
-36 -38 0
-37 -38 0
36 37 38 0
c gate 39 7 11 0
7 -39 0
11 -39 0
-7 -11 39 0
c gate 40 6 12 0
6 -40 0
12 -40 0
-6 -12 40 0
c gate 41 -39 -40 0
-39 -41 0
-40 -41 0
39 40 41 0
c gate 42 39 40 0
39 -42 0
40 -42 0
-39 -40 42 0
c gate 43 -41 -42 0
-41 -43 0
-42 -43 0
41 42 43 0
c gate 44 5 13 0
5 -44 0
13 -44 0
-5 -13 44 0
c gate 45 43 -44 0
43 -45 0
-44 -45 0
-43 44 45 0
c gate 46 -41 -45 0
-41 -46 0
-45 -46 0
41 45 46 0
c gate 47 38 46 0
38 -47 0
46 -47 0
-38 -46 47 0
c gate 48 -38 -46 0
-38 -48 0
-46 -48 0
38 46 48 0
c gate 49 -47 -48 0
-47 -49 0
-48 -49 0
47 48 49 0
c gate 50 29 49 0
29 -50 0
49 -50 0
-29 -49 50 0
c gate 51 -29 -49 0
-29 -51 0
-49 -51 0
29 49 51 0
c gate 52 -50 -51 0
-50 -52 0
-51 -52 0
50 51 52 0
c gate 53 6 11 0
6 -53 0
11 -53 0
-6 -11 53 0
c gate 54 5 12 0
5 -54 0
12 -54 0
-5 -12 54 0
c gate 55 53 54 0
53 -55 0
54 -55 0
-53 -54 55 0
c gate 56 4 13 0
4 -56 0
13 -56 0
-4 -13 56 0
c gate 57 -53 -54 0
-53 -57 0
-54 -57 0
53 54 57 0
c gate 58 -55 -57 0
-55 -58 0
-57 -58 0
55 57 58 0
c gate 59 56 58 0
56 -59 0
58 -59 0
-56 -58 59 0
c gate 60 -55 -59 0
-55 -60 0
-59 -60 0
55 59 60 0
c gate 61 -43 44 0
-43 -61 0
44 -61 0
43 -44 61 0
c gate 62 -45 -61 0
-45 -62 0
-61 -62 0
45 61 62 0
c gate 63 60 62 0
60 -63 0
62 -63 0
-60 -62 63 0
c gate 64 -60 -62 0
-60 -64 0
-62 -64 0
60 62 64 0
c gate 65 -63 -64 0
-63 -65 0
-64 -65 0
63 64 65 0
c gate 66 2 16 0
2 -66 0
16 -66 0
-2 -16 66 0
c gate 67 4 14 0
4 -67 0
14 -67 0
-4 -14 67 0
c gate 68 3 15 0
3 -68 0
15 -68 0
-3 -15 68 0
c gate 69 -67 -68 0
-67 -69 0
-68 -69 0
67 68 69 0
c gate 70 67 68 0
67 -70 0
68 -70 0
-67 -68 70 0
c gate 71 -69 -70 0
-69 -71 0
-70 -71 0
69 70 71 0
c gate 72 66 71 0
66 -72 0
71 -72 0
-66 -71 72 0
c gate 73 -66 -71 0
-66 -73 0
-71 -73 0
66 71 73 0
c gate 74 -72 -73 0
-72 -74 0
-73 -74 0
72 73 74 0
c gate 75 65 -74 0
65 -75 0
-74 -75 0
-65 74 75 0
c gate 76 -63 -75 0
-63 -76 0
-75 -76 0
63 75 76 0
c gate 77 52 76 0
52 -77 0
76 -77 0
-52 -76 77 0
c gate 78 2 17 0
2 -78 0
17 -78 0
-2 -17 78 0
c gate 79 1 18 0
1 -79 0
18 -79 0
-1 -18 79 0
c gate 80 -78 -79 0
-78 -80 0
-79 -80 0
78 79 80 0
c gate 81 78 79 0
78 -81 0
79 -81 0
-78 -79 81 0
c gate 82 -80 -81 0
-80 -82 0
-81 -82 0
80 81 82 0
c gate 83 -70 -72 0
-70 -83 0
-72 -83 0
70 72 83 0
c gate 84 -82 83 0
-82 -84 0
83 -84 0
82 -83 84 0
c gate 85 82 -83 0
82 -85 0
-83 -85 0
-82 83 85 0
c gate 86 -84 -85 0
-84 -86 0
-85 -86 0
84 85 86 0
c gate 87 -52 -76 0
-52 -87 0
-76 -87 0
52 76 87 0
c gate 88 -77 -87 0
-77 -88 0
-87 -88 0
77 87 88 0
c gate 89 86 88 0
86 -89 0
88 -89 0
-86 -88 89 0
c gate 90 -77 -89 0
-77 -90 0
-89 -90 0
77 89 90 0
c gate 91 1 19 0
1 -91 0
19 -91 0
-1 -19 91 0
c gate 92 3 17 0
3 -92 0
17 -92 0
-3 -17 92 0
c gate 93 2 18 0
2 -93 0
18 -93 0
-2 -18 93 0
c gate 94 92 93 0
92 -94 0
93 -94 0
-92 -93 94 0
c gate 95 -92 -93 0
-92 -95 0
-93 -95 0
92 93 95 0
c gate 96 -94 -95 0
-94 -96 0
-95 -96 0
94 95 96 0
c gate 97 91 96 0
91 -97 0
96 -97 0
-91 -96 97 0
c gate 98 -91 -96 0
-91 -98 0
-96 -98 0
91 96 98 0
c gate 99 -97 -98 0
-97 -99 0
-98 -99 0
97 98 99 0
c gate 100 -25 -28 0
-25 -100 0
-28 -100 0
25 28 100 0
c gate 101 99 -100 0
99 -101 0
-100 -101 0
-99 100 101 0
c gate 102 -99 100 0
-99 -102 0
100 -102 0
99 -100 102 0
c gate 103 -101 -102 0
-101 -103 0
-102 -103 0
101 102 103 0
c gate 104 -81 -103 0
-81 -104 0
-103 -104 0
81 103 104 0
c gate 105 81 103 0
81 -105 0
103 -105 0
-81 -103 105 0
c gate 106 -104 -105 0
-104 -106 0
-105 -106 0
104 105 106 0
c gate 107 -47 -50 0
-47 -107 0
-50 -107 0
47 50 107 0
c gate 108 4 16 0
4 -108 0
16 -108 0
-4 -16 108 0
c gate 109 6 14 0
6 -109 0
14 -109 0
-6 -14 109 0
c gate 110 5 15 0
5 -110 0
15 -110 0
-5 -15 110 0
c gate 111 -109 -110 0
-109 -111 0
-110 -111 0
109 110 111 0
c gate 112 109 110 0
109 -112 0
110 -112 0
-109 -110 112 0
c gate 113 -111 -112 0
-111 -113 0
-112 -113 0
111 112 113 0
c gate 114 108 113 0
108 -114 0
113 -114 0
-108 -113 114 0
c gate 115 -108 -113 0
-108 -115 0
-113 -115 0
108 113 115 0
c gate 116 -114 -115 0
-114 -116 0
-115 -116 0
114 115 116 0
c gate 117 -33 -36 0
-33 -117 0
-36 -117 0
33 36 117 0
c gate 118 7 13 0
7 -118 0
13 -118 0
-7 -13 118 0
c gate 119 9 11 0
9 -119 0
11 -119 0
-9 -11 119 0
c gate 120 8 12 0
8 -120 0
12 -120 0
-8 -12 120 0
c gate 121 119 120 0
119 -121 0
120 -121 0
-119 -120 121 0
c gate 122 -119 -120 0
-119 -122 0
-120 -122 0
119 120 122 0
c gate 123 -121 -122 0
-121 -123 0
-122 -123 0
121 122 123 0
c gate 124 118 123 0
118 -124 0
123 -124 0
-118 -123 124 0
c gate 125 -118 -123 0
-118 -125 0
-123 -125 0
118 123 125 0
c gate 126 -124 -125 0
-124 -126 0
-125 -126 0
124 125 126 0
c gate 127 -117 126 0
-117 -127 0
126 -127 0
117 -126 127 0
c gate 128 117 -126 0
117 -128 0
-126 -128 0
-117 126 128 0
c gate 129 -127 -128 0
-127 -129 0
-128 -129 0
127 128 129 0
c gate 130 116 129 0
116 -130 0
129 -130 0
-116 -129 130 0
c gate 131 -116 -129 0
-116 -131 0
-129 -131 0
116 129 131 0
c gate 132 -130 -131 0
-130 -132 0
-131 -132 0
130 131 132 0
c gate 133 -107 132 0
-107 -133 0
132 -133 0
107 -132 133 0
c gate 134 107 -132 0
107 -134 0
-132 -134 0
-107 132 134 0
c gate 135 -133 -134 0
-133 -135 0
-134 -135 0
133 134 135 0
c gate 136 106 135 0
106 -136 0
135 -136 0
-106 -135 136 0
c gate 137 -106 -135 0
-106 -137 0
-135 -137 0
106 135 137 0
c gate 138 -136 -137 0
-136 -138 0
-137 -138 0
136 137 138 0
c gate 139 -90 138 0
-90 -139 0
138 -139 0
90 -138 139 0
c gate 140 90 -138 0
90 -140 0
-138 -140 0
-90 138 140 0
c gate 141 -139 -140 0
-139 -141 0
-140 -141 0
139 140 141 0
c gate 142 85 141 0
85 -142 0
141 -142 0
-85 -141 142 0
c gate 143 -139 -142 0
-139 -143 0
-142 -143 0
139 142 143 0
c gate 144 -101 -105 0
-101 -144 0
-105 -144 0
101 105 144 0
c gate 145 -133 -136 0
-133 -145 0
-136 -145 0
133 136 145 0
c gate 146 -94 -97 0
-94 -146 0
-97 -146 0
94 97 146 0
c gate 147 2 19 0
2 -147 0
19 -147 0
-2 -19 147 0
c gate 148 4 17 0
4 -148 0
17 -148 0
-4 -17 148 0
c gate 149 3 18 0
3 -149 0
18 -149 0
-3 -18 149 0
c gate 150 148 149 0
148 -150 0
149 -150 0
-148 -149 150 0
c gate 151 -148 -149 0
-148 -151 0
-149 -151 0
148 149 151 0
c gate 152 -150 -151 0
-150 -152 0
-151 -152 0
150 151 152 0
c gate 153 147 152 0
147 -153 0
152 -153 0
-147 -152 153 0
c gate 154 -147 -152 0
-147 -154 0
-152 -154 0
147 152 154 0
c gate 155 -153 -154 0
-153 -155 0
-154 -155 0
153 154 155 0
c gate 156 -112 -114 0
-112 -156 0
-114 -156 0
112 114 156 0
c gate 157 155 -156 0
155 -157 0
-156 -157 0
-155 156 157 0
c gate 158 -155 156 0
-155 -158 0
156 -158 0
155 -156 158 0
c gate 159 -157 -158 0
-157 -159 0
-158 -159 0
157 158 159 0
c gate 160 -146 159 0
-146 -160 0
159 -160 0
146 -159 160 0
c gate 161 146 -159 0
146 -161 0
-159 -161 0
-146 159 161 0
c gate 162 -160 -161 0
-160 -162 0
-161 -162 0
160 161 162 0
c gate 163 -127 -130 0
-127 -163 0
-130 -163 0
127 130 163 0
c gate 164 5 16 0
5 -164 0
16 -164 0
-5 -16 164 0
c gate 165 7 14 0
7 -165 0
14 -165 0
-7 -14 165 0
c gate 166 6 15 0
6 -166 0
15 -166 0
-6 -15 166 0
c gate 167 -165 -166 0
-165 -167 0
-166 -167 0
165 166 167 0
c gate 168 165 166 0
165 -168 0
166 -168 0
-165 -166 168 0
c gate 169 -167 -168 0
-167 -169 0
-168 -169 0
167 168 169 0
c gate 170 164 169 0
164 -170 0
169 -170 0
-164 -169 170 0
c gate 171 -164 -169 0
-164 -171 0
-169 -171 0
164 169 171 0
c gate 172 -170 -171 0
-170 -172 0
-171 -172 0
170 171 172 0
c gate 173 -121 -124 0
-121 -173 0
-124 -173 0
121 124 173 0
c gate 174 8 13 0
8 -174 0
13 -174 0
-8 -13 174 0
c gate 175 9 12 0
9 -175 0
12 -175 0
-9 -12 175 0
c gate 176 10 11 0
10 -176 0
11 -176 0
-10 -11 176 0
c gate 177 -175 -176 0
-175 -177 0
-176 -177 0
175 176 177 0
c gate 178 175 176 0
175 -178 0
176 -178 0
-175 -176 178 0
c gate 179 -177 -178 0
-177 -179 0
-178 -179 0
177 178 179 0
c gate 180 174 179 0
174 -180 0
179 -180 0
-174 -179 180 0
c gate 181 -174 -179 0
-174 -181 0
-179 -181 0
174 179 181 0
c gate 182 -180 -181 0
-180 -182 0
-181 -182 0
180 181 182 0
c gate 183 -173 182 0
-173 -183 0
182 -183 0
173 -182 183 0
c gate 184 173 -182 0
173 -184 0
-182 -184 0
-173 182 184 0
c gate 185 -183 -184 0
-183 -185 0
-184 -185 0
183 184 185 0
c gate 186 172 185 0
172 -186 0
185 -186 0
-172 -185 186 0
c gate 187 -172 -185 0
-172 -187 0
-185 -187 0
172 185 187 0
c gate 188 -186 -187 0
-186 -188 0
-187 -188 0
186 187 188 0
c gate 189 -163 188 0
-163 -189 0
188 -189 0
163 -188 189 0
c gate 190 163 -188 0
163 -190 0
-188 -190 0
-163 188 190 0
c gate 191 -189 -190 0
-189 -191 0
-190 -191 0
189 190 191 0
c gate 192 162 191 0
162 -192 0
191 -192 0
-162 -191 192 0
c gate 193 -162 -191 0
-162 -193 0
-191 -193 0
162 191 193 0
c gate 194 -192 -193 0
-192 -194 0
-193 -194 0
192 193 194 0
c gate 195 -145 194 0
-145 -195 0
194 -195 0
145 -194 195 0
c gate 196 145 -194 0
145 -196 0
-194 -196 0
-145 194 196 0
c gate 197 -195 -196 0
-195 -197 0
-196 -197 0
195 196 197 0
c gate 198 -144 197 0
-144 -198 0
197 -198 0
144 -197 198 0
c gate 199 144 -197 0
144 -199 0
-197 -199 0
-144 197 199 0
c gate 200 -198 -199 0
-198 -200 0
-199 -200 0
198 199 200 0
c gate 201 -143 200 0
-143 -201 0
200 -201 0
143 -200 201 0
c gate 202 1 20 0
1 -202 0
20 -202 0
-1 -20 202 0
c gate 203 143 -200 0
143 -203 0
-200 -203 0
-143 200 203 0
c gate 204 -201 -203 0
-201 -204 0
-203 -204 0
201 203 204 0
c gate 205 202 204 0
202 -205 0
204 -205 0
-202 -204 205 0
c gate 206 -201 -205 0
-201 -206 0
-205 -206 0
201 205 206 0
c gate 207 2 20 0
2 -207 0
20 -207 0
-2 -20 207 0
c gate 208 -195 -198 0
-195 -208 0
-198 -208 0
195 198 208 0
c gate 209 -157 -160 0
-157 -209 0
-160 -209 0
157 160 209 0
c gate 210 -189 -192 0
-189 -210 0
-192 -210 0
189 192 210 0
c gate 211 -150 -153 0
-150 -211 0
-153 -211 0
150 153 211 0
c gate 212 3 19 0
3 -212 0
19 -212 0
-3 -19 212 0
c gate 213 5 17 0
5 -213 0
17 -213 0
-5 -17 213 0
c gate 214 4 18 0
4 -214 0
18 -214 0
-4 -18 214 0
c gate 215 -213 -214 0
-213 -215 0
-214 -215 0
213 214 215 0
c gate 216 213 214 0
213 -216 0
214 -216 0
-213 -214 216 0
c gate 217 -215 -216 0
-215 -217 0
-216 -217 0
215 216 217 0
c gate 218 212 217 0
212 -218 0
217 -218 0
-212 -217 218 0
c gate 219 -212 -217 0
-212 -219 0
-217 -219 0
212 217 219 0
c gate 220 -218 -219 0
-218 -220 0
-219 -220 0
218 219 220 0
c gate 221 -168 -170 0
-168 -221 0
-170 -221 0
168 170 221 0
c gate 222 220 -221 0
220 -222 0
-221 -222 0
-220 221 222 0
c gate 223 -220 221 0
-220 -223 0
221 -223 0
220 -221 223 0
c gate 224 -222 -223 0
-222 -224 0
-223 -224 0
222 223 224 0
c gate 225 -211 224 0
-211 -225 0
224 -225 0
211 -224 225 0
c gate 226 211 -224 0
211 -226 0
-224 -226 0
-211 224 226 0
c gate 227 -225 -226 0
-225 -227 0
-226 -227 0
225 226 227 0
c gate 228 -183 -186 0
-183 -228 0
-186 -228 0
183 186 228 0
c gate 229 6 16 0
6 -229 0
16 -229 0
-6 -16 229 0
c gate 230 8 14 0
8 -230 0
14 -230 0
-8 -14 230 0
c gate 231 7 15 0
7 -231 0
15 -231 0
-7 -15 231 0
c gate 232 -230 -231 0
-230 -232 0
-231 -232 0
230 231 232 0
c gate 233 230 231 0
230 -233 0
231 -233 0
-230 -231 233 0
c gate 234 -232 -233 0
-232 -234 0
-233 -234 0
232 233 234 0
c gate 235 229 234 0
229 -235 0
234 -235 0
-229 -234 235 0
c gate 236 -229 -234 0
-229 -236 0
-234 -236 0
229 234 236 0
c gate 237 -235 -236 0
-235 -237 0
-236 -237 0
235 236 237 0
c gate 238 -178 -180 0
-178 -238 0
-180 -238 0
178 180 238 0
c gate 239 10 12 0
10 -239 0
12 -239 0
-10 -12 239 0
c gate 240 9 13 0
9 -240 0
13 -240 0
-9 -13 240 0
c gate 241 -239 -240 0
-239 -241 0
-240 -241 0
239 240 241 0
c gate 242 239 240 0
239 -242 0
240 -242 0
-239 -240 242 0
c gate 243 -241 -242 0
-241 -243 0
-242 -243 0
241 242 243 0
c gate 244 -238 243 0
-238 -244 0
243 -244 0
238 -243 244 0
c gate 245 238 -243 0
238 -245 0
-243 -245 0
-238 243 245 0
c gate 246 -244 -245 0
-244 -246 0
-245 -246 0
244 245 246 0
c gate 247 237 246 0
237 -247 0
246 -247 0
-237 -246 247 0
c gate 248 -237 -246 0
-237 -248 0
-246 -248 0
237 246 248 0
c gate 249 -247 -248 0
-247 -249 0
-248 -249 0
247 248 249 0
c gate 250 -228 249 0
-228 -250 0
249 -250 0
228 -249 250 0
c gate 251 228 -249 0
228 -251 0
-249 -251 0
-228 249 251 0
c gate 252 -250 -251 0
-250 -252 0
-251 -252 0
250 251 252 0
c gate 253 227 252 0
227 -253 0
252 -253 0
-227 -252 253 0
c gate 254 -227 -252 0
-227 -254 0
-252 -254 0
227 252 254 0
c gate 255 -253 -254 0
-253 -255 0
-254 -255 0
253 254 255 0
c gate 256 -210 255 0
-210 -256 0
255 -256 0
210 -255 256 0
c gate 257 210 -255 0
210 -257 0
-255 -257 0
-210 255 257 0
c gate 258 -256 -257 0
-256 -258 0
-257 -258 0
256 257 258 0
c gate 259 -209 258 0
-209 -259 0
258 -259 0
209 -258 259 0
c gate 260 209 -258 0
209 -260 0
-258 -260 0
-209 258 260 0
c gate 261 -259 -260 0
-259 -261 0
-260 -261 0
259 260 261 0
c gate 262 -208 261 0
-208 -262 0
261 -262 0
208 -261 262 0
c gate 263 208 -261 0
208 -263 0
-261 -263 0
-208 261 263 0
c gate 264 -262 -263 0
-262 -264 0
-263 -264 0
262 263 264 0
c gate 265 207 264 0
207 -265 0
264 -265 0
-207 -264 265 0
c gate 266 -207 -264 0
-207 -266 0
-264 -266 0
207 264 266 0
c gate 267 -265 -266 0
-265 -267 0
-266 -267 0
265 266 267 0
c gate 268 -206 267 0
-206 -268 0
267 -268 0
206 -267 268 0
c gate 269 -262 -265 0
-262 -269 0
-265 -269 0
262 265 269 0
c gate 270 3 20 0
3 -270 0
20 -270 0
-3 -20 270 0
c gate 271 -256 -259 0
-256 -271 0
-259 -271 0
256 259 271 0
c gate 272 -222 -225 0
-222 -272 0
-225 -272 0
222 225 272 0
c gate 273 -250 -253 0
-250 -273 0
-253 -273 0
250 253 273 0
c gate 274 -216 -218 0
-216 -274 0
-218 -274 0
216 218 274 0
c gate 275 4 19 0
4 -275 0
19 -275 0
-4 -19 275 0
c gate 276 5 18 0
5 -276 0
18 -276 0
-5 -18 276 0
c gate 277 6 17 0
6 -277 0
17 -277 0
-6 -17 277 0
c gate 278 -276 -277 0
-276 -278 0
-277 -278 0
276 277 278 0
c gate 279 276 277 0
276 -279 0
277 -279 0
-276 -277 279 0
c gate 280 -278 -279 0
-278 -280 0
-279 -280 0
278 279 280 0
c gate 281 275 280 0
275 -281 0
280 -281 0
-275 -280 281 0
c gate 282 -275 -280 0
-275 -282 0
-280 -282 0
275 280 282 0
c gate 283 -281 -282 0
-281 -283 0
-282 -283 0
281 282 283 0
c gate 284 -233 -235 0
-233 -284 0
-235 -284 0
233 235 284 0
c gate 285 283 -284 0
283 -285 0
-284 -285 0
-283 284 285 0
c gate 286 -283 284 0
-283 -286 0
284 -286 0
283 -284 286 0
c gate 287 -285 -286 0
-285 -287 0
-286 -287 0
285 286 287 0
c gate 288 -274 287 0
-274 -288 0
287 -288 0
274 -287 288 0
c gate 289 274 -287 0
274 -289 0
-287 -289 0
-274 287 289 0
c gate 290 -288 -289 0
-288 -290 0
-289 -290 0
288 289 290 0
c gate 291 -244 -247 0
-244 -291 0
-247 -291 0
244 247 291 0
c gate 292 7 16 0
7 -292 0
16 -292 0
-7 -16 292 0
c gate 293 8 15 0
8 -293 0
15 -293 0
-8 -15 293 0
c gate 294 9 14 0
9 -294 0
14 -294 0
-9 -14 294 0
c gate 295 -293 -294 0
-293 -295 0
-294 -295 0
293 294 295 0
c gate 296 293 294 0
293 -296 0
294 -296 0
-293 -294 296 0
c gate 297 -295 -296 0
-295 -297 0
-296 -297 0
295 296 297 0
c gate 298 292 297 0
292 -298 0
297 -298 0
-292 -297 298 0
c gate 299 -292 -297 0
-292 -299 0
-297 -299 0
292 297 299 0
c gate 300 -298 -299 0
-298 -300 0
-299 -300 0
298 299 300 0
c gate 301 10 13 0
10 -301 0
13 -301 0
-10 -13 301 0
c gate 302 -175 301 0
-175 -302 0
301 -302 0
175 -301 302 0
c gate 303 300 302 0
300 -303 0
302 -303 0
-300 -302 303 0
c gate 304 -300 -302 0
-300 -304 0
-302 -304 0
300 302 304 0
c gate 305 -303 -304 0
-303 -305 0
-304 -305 0
303 304 305 0
c gate 306 -291 305 0
-291 -306 0
305 -306 0
291 -305 306 0
c gate 307 291 -305 0
291 -307 0
-305 -307 0
-291 305 307 0
c gate 308 -306 -307 0
-306 -308 0
-307 -308 0
306 307 308 0
c gate 309 290 308 0
290 -309 0
308 -309 0
-290 -308 309 0
c gate 310 -290 -308 0
-290 -310 0
-308 -310 0
290 308 310 0
c gate 311 -309 -310 0
-309 -311 0
-310 -311 0
309 310 311 0
c gate 312 -273 311 0
-273 -312 0
311 -312 0
273 -311 312 0
c gate 313 273 -311 0
273 -313 0
-311 -313 0
-273 311 313 0
c gate 314 -312 -313 0
-312 -314 0
-313 -314 0
312 313 314 0
c gate 315 -272 314 0
-272 -315 0
314 -315 0
272 -314 315 0
c gate 316 272 -314 0
272 -316 0
-314 -316 0
-272 314 316 0
c gate 317 -315 -316 0
-315 -317 0
-316 -317 0
315 316 317 0
c gate 318 -271 317 0
-271 -318 0
317 -318 0
271 -317 318 0
c gate 319 271 -317 0
271 -319 0
-317 -319 0
-271 317 319 0
c gate 320 -318 -319 0
-318 -320 0
-319 -320 0
318 319 320 0
c gate 321 270 320 0
270 -321 0
320 -321 0
-270 -320 321 0
c gate 322 -270 -320 0
-270 -322 0
-320 -322 0
270 320 322 0
c gate 323 -321 -322 0
-321 -323 0
-322 -323 0
321 322 323 0
c gate 324 269 -323 0
269 -324 0
-323 -324 0
-269 323 324 0
c gate 325 -268 -324 0
-268 -325 0
-324 -325 0
268 324 325 0
c gate 326 -269 323 0
-269 -326 0
323 -326 0
269 -323 326 0
c gate 327 206 -267 0
206 -327 0
-267 -327 0
-206 267 327 0
c gate 328 -326 -327 0
-326 -328 0
-327 -328 0
326 327 328 0
c gate 329 325 328 0
325 -329 0
328 -329 0
-325 -328 329 0
c gate 330 -56 -58 0
-56 -330 0
-58 -330 0
56 58 330 0
c gate 331 -59 -330 0
-59 -331 0
-330 -331 0
59 330 331 0
c gate 332 5 11 0
5 -332 0
11 -332 0
-5 -11 332 0
c gate 333 4 12 0
4 -333 0
12 -333 0
-4 -12 333 0
c gate 334 -332 -333 0
-332 -334 0
-333 -334 0
332 333 334 0
c gate 335 3 13 0
3 -335 0
13 -335 0
-3 -13 335 0
c gate 336 332 333 0
332 -336 0
333 -336 0
-332 -333 336 0
c gate 337 -334 -336 0
-334 -337 0
-336 -337 0
334 336 337 0
c gate 338 -335 337 0
-335 -338 0
337 -338 0
335 -337 338 0
c gate 339 -334 -338 0
-334 -339 0
-338 -339 0
334 338 339 0
c gate 340 331 339 0
331 -340 0
339 -340 0
-331 -339 340 0
c gate 341 1 16 0
1 -341 0
16 -341 0
-1 -16 341 0
c gate 342 3 14 0
3 -342 0
14 -342 0
-3 -14 342 0
c gate 343 2 15 0
2 -343 0
15 -343 0
-2 -15 343 0
c gate 344 -342 -343 0
-342 -344 0
-343 -344 0
342 343 344 0
c gate 345 342 343 0
342 -345 0
343 -345 0
-342 -343 345 0
c gate 346 -344 -345 0
-344 -346 0
-345 -346 0
344 345 346 0
c gate 347 341 346 0
341 -347 0
346 -347 0
-341 -346 347 0
c gate 348 -341 -346 0
-341 -348 0
-346 -348 0
341 346 348 0
c gate 349 -347 -348 0
-347 -349 0
-348 -349 0
347 348 349 0
c gate 350 -331 -339 0
-331 -350 0
-339 -350 0
331 339 350 0
c gate 351 -340 -350 0
-340 -351 0
-350 -351 0
340 350 351 0
c gate 352 349 351 0
349 -352 0
351 -352 0
-349 -351 352 0
c gate 353 -340 -352 0
-340 -353 0
-352 -353 0
340 352 353 0
c gate 354 -65 74 0
-65 -354 0
74 -354 0
65 -74 354 0
c gate 355 -75 -354 0
-75 -355 0
-354 -355 0
75 354 355 0
c gate 356 -353 -355 0
-353 -356 0
-355 -356 0
353 355 356 0
c gate 357 353 355 0
353 -357 0
355 -357 0
-353 -355 357 0
c gate 358 -356 -357 0
-356 -358 0
-357 -358 0
356 357 358 0
c gate 359 1 17 0
1 -359 0
17 -359 0
-1 -17 359 0
c gate 360 -345 -347 0
-345 -360 0
-347 -360 0
345 347 360 0
c gate 361 359 -360 0
359 -361 0
-360 -361 0
-359 360 361 0
c gate 362 -359 360 0
-359 -362 0
360 -362 0
359 -360 362 0
c gate 363 -361 -362 0
-361 -363 0
-362 -363 0
361 362 363 0
c gate 364 358 363 0
358 -364 0
363 -364 0
-358 -363 364 0
c gate 365 -356 -364 0
-356 -365 0
-364 -365 0
356 364 365 0
c gate 366 -86 -88 0
-86 -366 0
-88 -366 0
86 88 366 0
c gate 367 -89 -366 0
-89 -367 0
-366 -367 0
89 366 367 0
c gate 368 -365 367 0
-365 -368 0
367 -368 0
365 -367 368 0
c gate 369 365 -367 0
365 -369 0
-367 -369 0
-365 367 369 0
c gate 370 -368 -369 0
-368 -370 0
-369 -370 0
368 369 370 0
c gate 371 361 370 0
361 -371 0
370 -371 0
-361 -370 371 0
c gate 372 -368 -371 0
-368 -372 0
-371 -372 0
368 371 372 0
c gate 373 -85 -141 0
-85 -373 0
-141 -373 0
85 141 373 0
c gate 374 -142 -373 0
-142 -374 0
-373 -374 0
142 373 374 0
c gate 375 -372 374 0
-372 -375 0
374 -375 0
372 -374 375 0
c gate 376 -368 -374 0
-368 -376 0
-374 -376 0
368 374 376 0
c gate 377 -361 -370 0
-361 -377 0
-370 -377 0
361 370 377 0
c gate 378 -371 -377 0
-371 -378 0
-377 -378 0
371 377 378 0
c gate 379 4 11 0
4 -379 0
11 -379 0
-4 -11 379 0
c gate 380 3 12 0
3 -380 0
12 -380 0
-3 -12 380 0
c gate 381 379 380 0
379 -381 0
380 -381 0
-379 -380 381 0
c gate 382 -379 -380 0
-379 -382 0
-380 -382 0
379 380 382 0
c gate 383 -381 -382 0
-381 -383 0
-382 -383 0
381 382 383 0
c gate 384 2 13 0
2 -384 0
13 -384 0
-2 -13 384 0
c gate 385 383 384 0
383 -385 0
384 -385 0
-383 -384 385 0
c gate 386 -381 -385 0
-381 -386 0
-385 -386 0
381 385 386 0
c gate 387 335 -337 0
335 -387 0
-337 -387 0
-335 337 387 0
c gate 388 -338 -387 0
-338 -388 0
-387 -388 0
338 387 388 0
c gate 389 -386 -388 0
-386 -389 0
-388 -389 0
386 388 389 0
c gate 390 386 388 0
386 -390 0
388 -390 0
-386 -388 390 0
c gate 391 -389 -390 0
-389 -391 0
-390 -391 0
389 390 391 0
c gate 392 2 14 0
2 -392 0
14 -392 0
-2 -14 392 0
c gate 393 1 15 0
1 -393 0
15 -393 0
-1 -15 393 0
c gate 394 -392 -393 0
-392 -394 0
-393 -394 0
392 393 394 0
c gate 395 392 393 0
392 -395 0
393 -395 0
-392 -393 395 0
c gate 396 -394 -395 0
-394 -396 0
-395 -396 0
394 395 396 0
c gate 397 391 396 0
391 -397 0
396 -397 0
-391 -396 397 0
c gate 398 -389 -397 0
-389 -398 0
-397 -398 0
389 397 398 0
c gate 399 -349 -351 0
-349 -399 0
-351 -399 0
349 351 399 0
c gate 400 -352 -399 0
-352 -400 0
-399 -400 0
352 399 400 0
c gate 401 -398 400 0
-398 -401 0
400 -401 0
398 -400 401 0
c gate 402 398 -400 0
398 -402 0
-400 -402 0
-398 400 402 0
c gate 403 -401 -402 0
-401 -403 0
-402 -403 0
401 402 403 0
c gate 404 395 403 0
395 -404 0
403 -404 0
-395 -403 404 0
c gate 405 -401 -404 0
-401 -405 0
-404 -405 0
401 404 405 0
c gate 406 -358 -363 0
-358 -406 0
-363 -406 0
358 363 406 0
c gate 407 -364 -406 0
-364 -407 0
-406 -407 0
364 406 407 0
c gate 408 -405 407 0
-405 -408 0
407 -408 0
405 -407 408 0
c gate 409 378 408 0
378 -409 0
408 -409 0
-378 -408 409 0
c gate 410 -376 409 0
-376 -410 0
409 -410 0
376 -409 410 0
c gate 411 -375 -410 0
-375 -411 0
-410 -411 0
375 410 411 0
c gate 412 -202 -204 0
-202 -412 0
-204 -412 0
202 204 412 0
c gate 413 -205 -412 0
-205 -413 0
-412 -413 0
205 412 413 0
c gate 414 -411 413 0
-411 -414 0
413 -414 0
411 -413 414 0
c gate 415 329 414 0
329 -415 0
414 -415 0
-329 -414 415 0
c gate 416 268 -324 0
268 -416 0
-324 -416 0
-268 324 416 0
c gate 417 -326 -416 0
-326 -417 0
-416 -417 0
326 416 417 0
c gate 418 -415 417 0
-415 -418 0
417 -418 0
415 -417 418 0
c gate 419 -312 -315 0
-312 -419 0
-315 -419 0
312 315 419 0
c gate 420 -285 -288 0
-285 -420 0
-288 -420 0
285 288 420 0
c gate 421 -306 -309 0
-306 -421 0
-309 -421 0
306 309 421 0
c gate 422 -279 -281 0
-279 -422 0
-281 -422 0
279 281 422 0
c gate 423 5 19 0
5 -423 0
19 -423 0
-5 -19 423 0
c gate 424 6 18 0
6 -424 0
18 -424 0
-6 -18 424 0
c gate 425 7 17 0
7 -425 0
17 -425 0
-7 -17 425 0
c gate 426 -424 -425 0
-424 -426 0
-425 -426 0
424 425 426 0
c gate 427 424 425 0
424 -427 0
425 -427 0
-424 -425 427 0
c gate 428 -426 -427 0
-426 -428 0
-427 -428 0
426 427 428 0
c gate 429 423 428 0
423 -429 0
428 -429 0
-423 -428 429 0
c gate 430 -423 -428 0
-423 -430 0
-428 -430 0
423 428 430 0
c gate 431 -429 -430 0
-429 -431 0
-430 -431 0
429 430 431 0
c gate 432 -296 -298 0
-296 -432 0
-298 -432 0
296 298 432 0
c gate 433 431 -432 0
431 -433 0
-432 -433 0
-431 432 433 0
c gate 434 -431 432 0
-431 -434 0
432 -434 0
431 -432 434 0
c gate 435 -433 -434 0
-433 -435 0
-434 -435 0
433 434 435 0
c gate 436 -422 435 0
-422 -436 0
435 -436 0
422 -435 436 0
c gate 437 422 -435 0
422 -437 0
-435 -437 0
-422 435 437 0
c gate 438 -436 -437 0
-436 -438 0
-437 -438 0
436 437 438 0
c gate 439 -242 -303 0
-242 -439 0
-303 -439 0
242 303 439 0
c gate 440 8 16 0
8 -440 0
16 -440 0
-8 -16 440 0
c gate 441 9 15 0
9 -441 0
15 -441 0
-9 -15 441 0
c gate 442 10 14 0
10 -442 0
14 -442 0
-10 -14 442 0
c gate 443 -441 -442 0
-441 -443 0
-442 -443 0
441 442 443 0
c gate 444 441 442 0
441 -444 0
442 -444 0
-441 -442 444 0
c gate 445 -443 -444 0
-443 -445 0
-444 -445 0
443 444 445 0
c gate 446 440 445 0
440 -446 0
445 -446 0
-440 -445 446 0
c gate 447 -440 -445 0
-440 -447 0
-445 -447 0
440 445 447 0
c gate 448 -446 -447 0
-446 -448 0
-447 -448 0
446 447 448 0
c gate 449 -439 448 0
-439 -449 0
448 -449 0
439 -448 449 0
c gate 450 439 -448 0
439 -450 0
-448 -450 0
-439 448 450 0
c gate 451 -449 -450 0
-449 -451 0
-450 -451 0
449 450 451 0
c gate 452 438 451 0
438 -452 0
451 -452 0
-438 -451 452 0
c gate 453 -438 -451 0
-438 -453 0
-451 -453 0
438 451 453 0
c gate 454 -452 -453 0
-452 -454 0
-453 -454 0
452 453 454 0
c gate 455 -421 454 0
-421 -455 0
454 -455 0
421 -454 455 0
c gate 456 421 -454 0
421 -456 0
-454 -456 0
-421 454 456 0
c gate 457 -455 -456 0
-455 -457 0
-456 -457 0
455 456 457 0
c gate 458 -420 457 0
-420 -458 0
457 -458 0
420 -457 458 0
c gate 459 420 -457 0
420 -459 0
-457 -459 0
-420 457 459 0
c gate 460 -458 -459 0
-458 -460 0
-459 -460 0
458 459 460 0
c gate 461 -419 460 0
-419 -461 0
460 -461 0
419 -460 461 0
c gate 462 4 20 0
4 -462 0
20 -462 0
-4 -20 462 0
c gate 463 419 -460 0
419 -463 0
-460 -463 0
-419 460 463 0
c gate 464 -461 -463 0
-461 -464 0
-463 -464 0
461 463 464 0
c gate 465 462 464 0
462 -465 0
464 -465 0
-462 -464 465 0
c gate 466 -461 -465 0
-461 -466 0
-465 -466 0
461 465 466 0
c gate 467 5 20 0
5 -467 0
20 -467 0
-5 -20 467 0
c gate 468 -455 -458 0
-455 -468 0
-458 -468 0
455 458 468 0
c gate 469 -433 -436 0
-433 -469 0
-436 -469 0
433 436 469 0
c gate 470 -449 -452 0
-449 -470 0
-452 -470 0
449 452 470 0
c gate 471 -427 -429 0
-427 -471 0
-429 -471 0
427 429 471 0
c gate 472 6 19 0
6 -472 0
19 -472 0
-6 -19 472 0
c gate 473 7 18 0
7 -473 0
18 -473 0
-7 -18 473 0
c gate 474 8 17 0
8 -474 0
17 -474 0
-8 -17 474 0
c gate 475 -473 -474 0
-473 -475 0
-474 -475 0
473 474 475 0
c gate 476 473 474 0
473 -476 0
474 -476 0
-473 -474 476 0
c gate 477 -475 -476 0
-475 -477 0
-476 -477 0
475 476 477 0
c gate 478 472 477 0
472 -478 0
477 -478 0
-472 -477 478 0
c gate 479 -472 -477 0
-472 -479 0
-477 -479 0
472 477 479 0
c gate 480 -478 -479 0
-478 -480 0
-479 -480 0
478 479 480 0
c gate 481 -444 -446 0
-444 -481 0
-446 -481 0
444 446 481 0
c gate 482 480 -481 0
480 -482 0
-481 -482 0
-480 481 482 0
c gate 483 -480 481 0
-480 -483 0
481 -483 0
480 -481 483 0
c gate 484 -482 -483 0
-482 -484 0
-483 -484 0
482 483 484 0
c gate 485 471 -484 0
471 -485 0
-484 -485 0
-471 484 485 0
c gate 486 -471 484 0
-471 -486 0
484 -486 0
471 -484 486 0
c gate 487 -485 -486 0
-485 -487 0
-486 -487 0
485 486 487 0
c gate 488 10 15 0
10 -488 0
15 -488 0
-10 -15 488 0
c gate 489 9 16 0
9 -489 0
16 -489 0
-9 -16 489 0
c gate 490 -488 -489 0
-488 -490 0
-489 -490 0
488 489 490 0
c gate 491 488 489 0
488 -491 0
489 -491 0
-488 -489 491 0
c gate 492 -490 -491 0
-490 -492 0
-491 -492 0
490 491 492 0
c gate 493 487 492 0
487 -493 0
492 -493 0
-487 -492 493 0
c gate 494 -487 -492 0
-487 -494 0
-492 -494 0
487 492 494 0
c gate 495 -493 -494 0
-493 -495 0
-494 -495 0
493 494 495 0
c gate 496 -470 495 0
-470 -496 0
495 -496 0
470 -495 496 0
c gate 497 470 -495 0
470 -497 0
-495 -497 0
-470 495 497 0
c gate 498 -496 -497 0
-496 -498 0
-497 -498 0
496 497 498 0
c gate 499 -469 498 0
-469 -499 0
498 -499 0
469 -498 499 0
c gate 500 469 -498 0
469 -500 0
-498 -500 0
-469 498 500 0
c gate 501 -499 -500 0
-499 -501 0
-500 -501 0
499 500 501 0
c gate 502 -468 501 0
-468 -502 0
501 -502 0
468 -501 502 0
c gate 503 468 -501 0
468 -503 0
-501 -503 0
-468 501 503 0
c gate 504 -502 -503 0
-502 -504 0
-503 -504 0
502 503 504 0
c gate 505 467 504 0
467 -505 0
504 -505 0
-467 -504 505 0
c gate 506 -467 -504 0
-467 -506 0
-504 -506 0
467 504 506 0
c gate 507 -505 -506 0
-505 -507 0
-506 -507 0
505 506 507 0
c gate 508 466 -507 0
466 -508 0
-507 -508 0
-466 507 508 0
c gate 509 -466 507 0
-466 -509 0
507 -509 0
466 -507 509 0
c gate 510 -508 -509 0
-508 -510 0
-509 -510 0
508 509 510 0
c gate 511 -496 -499 0
-496 -511 0
-499 -511 0
496 499 511 0
c gate 512 -482 -486 0
-482 -512 0
-486 -512 0
482 486 512 0
c gate 513 10 16 0
10 -513 0
16 -513 0
-10 -16 513 0
c gate 514 -476 -478 0
-476 -514 0
-478 -514 0
476 478 514 0
c gate 515 7 19 0
7 -515 0
19 -515 0
-7 -19 515 0
c gate 516 8 18 0
8 -516 0
18 -516 0
-8 -18 516 0
c gate 517 9 17 0
9 -517 0
17 -517 0
-9 -17 517 0
c gate 518 -516 -517 0
-516 -518 0
-517 -518 0
516 517 518 0
c gate 519 516 517 0
516 -519 0
517 -519 0
-516 -517 519 0
c gate 520 -518 -519 0
-518 -520 0
-519 -520 0
518 519 520 0
c gate 521 515 520 0
515 -521 0
520 -521 0
-515 -520 521 0
c gate 522 -515 -520 0
-515 -522 0
-520 -522 0
515 520 522 0
c gate 523 -521 -522 0
-521 -523 0
-522 -523 0
521 522 523 0
c gate 524 491 523 0
491 -524 0
523 -524 0
-491 -523 524 0
c gate 525 -491 -523 0
-491 -525 0
-523 -525 0
491 523 525 0
c gate 526 -524 -525 0
-524 -526 0
-525 -526 0
524 525 526 0
c gate 527 514 -526 0
514 -527 0
-526 -527 0
-514 526 527 0
c gate 528 -514 526 0
-514 -528 0
526 -528 0
514 -526 528 0
c gate 529 -527 -528 0
-527 -529 0
-528 -529 0
527 528 529 0
c gate 530 513 529 0
513 -530 0
529 -530 0
-513 -529 530 0
c gate 531 -513 -529 0
-513 -531 0
-529 -531 0
513 529 531 0
c gate 532 -530 -531 0
-530 -532 0
-531 -532 0
530 531 532 0
c gate 533 493 532 0
493 -533 0
532 -533 0
-493 -532 533 0
c gate 534 -493 -532 0
-493 -534 0
-532 -534 0
493 532 534 0
c gate 535 -533 -534 0
-533 -535 0
-534 -535 0
533 534 535 0
c gate 536 -512 535 0
-512 -536 0
535 -536 0
512 -535 536 0
c gate 537 512 -535 0
512 -537 0
-535 -537 0
-512 535 537 0
c gate 538 -536 -537 0
-536 -538 0
-537 -538 0
536 537 538 0
c gate 539 -511 538 0
-511 -539 0
538 -539 0
511 -538 539 0
c gate 540 6 20 0
6 -540 0
20 -540 0
-6 -20 540 0
c gate 541 511 -538 0
511 -541 0
-538 -541 0
-511 538 541 0
c gate 542 -539 -541 0
-539 -542 0
-541 -542 0
539 541 542 0
c gate 543 540 542 0
540 -543 0
542 -543 0
-540 -542 543 0
c gate 544 -539 -543 0
-539 -544 0
-543 -544 0
539 543 544 0
c gate 545 7 20 0
7 -545 0
20 -545 0
-7 -20 545 0
c gate 546 -533 -536 0
-533 -546 0
-536 -546 0
533 536 546 0
c gate 547 -524 -528 0
-524 -547 0
-528 -547 0
524 528 547 0
c gate 548 -519 -521 0
-519 -548 0
-521 -548 0
519 521 548 0
c gate 549 8 19 0
8 -549 0
19 -549 0
-8 -19 549 0
c gate 550 9 18 0
9 -550 0
18 -550 0
-9 -18 550 0
c gate 551 10 17 0
10 -551 0
17 -551 0
-10 -17 551 0
c gate 552 -550 -551 0
-550 -552 0
-551 -552 0
550 551 552 0
c gate 553 550 551 0
550 -553 0
551 -553 0
-550 -551 553 0
c gate 554 -552 -553 0
-552 -554 0
-553 -554 0
552 553 554 0
c gate 555 549 554 0
549 -555 0
554 -555 0
-549 -554 555 0
c gate 556 -549 -554 0
-549 -556 0
-554 -556 0
549 554 556 0
c gate 557 -555 -556 0
-555 -557 0
-556 -557 0
555 556 557 0
c gate 558 -548 557 0
-548 -558 0
557 -558 0
548 -557 558 0
c gate 559 548 -557 0
548 -559 0
-557 -559 0
-548 557 559 0
c gate 560 -558 -559 0
-558 -560 0
-559 -560 0
558 559 560 0
c gate 561 530 560 0
530 -561 0
560 -561 0
-530 -560 561 0
c gate 562 -530 -560 0
-530 -562 0
-560 -562 0
530 560 562 0
c gate 563 -561 -562 0
-561 -563 0
-562 -563 0
561 562 563 0
c gate 564 -547 563 0
-547 -564 0
563 -564 0
547 -563 564 0
c gate 565 547 -563 0
547 -565 0
-563 -565 0
-547 563 565 0
c gate 566 -564 -565 0
-564 -566 0
-565 -566 0
564 565 566 0
c gate 567 -546 566 0
-546 -567 0
566 -567 0
546 -566 567 0
c gate 568 546 -566 0
546 -568 0
-566 -568 0
-546 566 568 0
c gate 569 -567 -568 0
-567 -569 0
-568 -569 0
567 568 569 0
c gate 570 545 569 0
545 -570 0
569 -570 0
-545 -569 570 0
c gate 571 -545 -569 0
-545 -571 0
-569 -571 0
545 569 571 0
c gate 572 -570 -571 0
-570 -572 0
-571 -572 0
570 571 572 0
c gate 573 -544 572 0
-544 -573 0
572 -573 0
544 -572 573 0
c gate 574 -502 -505 0
-502 -574 0
-505 -574 0
502 505 574 0
c gate 575 544 -572 0
544 -575 0
-572 -575 0
-544 572 575 0
c gate 576 -540 -542 0
-540 -576 0
-542 -576 0
540 542 576 0
c gate 577 -543 -576 0
-543 -577 0
-576 -577 0
543 576 577 0
c gate 578 -575 577 0
-575 -578 0
577 -578 0
575 -577 578 0
c gate 579 -574 578 0
-574 -579 0
578 -579 0
574 -578 579 0
c gate 580 -573 -579 0
-573 -580 0
-579 -580 0
573 579 580 0
c gate 581 574 -577 0
574 -581 0
-577 -581 0
-574 577 581 0
c gate 582 -575 -581 0
-575 -582 0
-581 -582 0
575 581 582 0
c gate 583 580 582 0
580 -583 0
582 -583 0
-580 -582 583 0
c gate 584 -318 -321 0
-318 -584 0
-321 -584 0
318 321 584 0
c gate 585 -462 -464 0
-462 -585 0
-464 -585 0
462 464 585 0
c gate 586 -465 -585 0
-465 -586 0
-585 -586 0
465 585 586 0
c gate 587 -584 586 0
-584 -587 0
586 -587 0
584 -586 587 0
c gate 588 584 -586 0
584 -588 0
-586 -588 0
-584 586 588 0
c gate 589 -587 -588 0
-587 -589 0
-588 -589 0
587 588 589 0
c gate 590 583 589 0
583 -590 0
589 -590 0
-583 -589 590 0
c gate 591 510 590 0
510 -591 0
590 -591 0
-510 -590 591 0
c gate 592 -418 591 0
-418 -592 0
591 -592 0
418 -591 592 0
c PO
592 0
